Tried aggregator 2 times.
MIP Presolve eliminated 8 rows and 8 columns.
Aggregator did 4 substitutions.
Reduced MIP has 105109 rows, 140148 columns, and 350364 nonzeros.
Reduced MIP has 35036 binaries, 0 generals, 0 SOSs, and 0 indicators.
Presolve time = 0.32 sec. (224.71 ticks)
Found incumbent of value 3167.223803 after 0.82 sec. (683.73 ticks)
Probing time = 0.19 sec. (6.64 ticks)
Tried aggregator 1 time.
Reduced MIP has 105109 rows, 140148 columns, and 350364 nonzeros.
Reduced MIP has 35036 binaries, 0 generals, 0 SOSs, and 0 indicators.
Presolve time = 0.48 sec. (189.93 ticks)
Probing time = 0.06 sec. (6.24 ticks)
MIP emphasis: balance optimality and feasibility.
MIP search method: dynamic search.
Parallel mode: deterministic, using up to 20 threads.
Root relaxation solution time = 1.49 sec. (994.75 ticks)

        Nodes                                         Cuts/
   Node  Left     Objective  IInf  Best Integer    Best Bound    ItCnt     Gap

*     0+    0                         3167.2238   1.56790e+07              --- 
*     0+    0                       124807.9816   1.56790e+07              --- 
      0     0  5243670.7557  1596   124807.9816  5243670.7557    14584     --- 
*     0+    0                      5098780.1385  5243670.7557             2.84%
      0     0  5213836.0667   650  5098780.1385    Cuts: 3134    15783    2.26%
*     0+    0                      5121378.3869  5213836.0667             1.81%
      0     0  5211770.4139   560  5121378.3869    Cuts: 1966    16567    1.76%
      0     0  5208956.2121   544  5121378.3869    Cuts: 1450    17295    1.71%
      0     0  5198518.3841   416  5121378.3869    Cuts: 1366    17949    1.51%
      0     0  5194820.5268   320  5121378.3869     Cuts: 579    18291    1.43%
      0     0  5194008.0228   281  5121378.3869     Cuts: 327    18457    1.42%
      0     0  5193767.2881   242  5121378.3869     Cuts: 106    18517    1.41%
      0     0  5193469.9461   228  5121378.3869      Cuts: 88    18548    1.41%
      0     0  5193393.9963   224  5121378.3869   MIRcuts: 19    18561    1.41%
      0     0  5193375.6002   222  5121378.3869    MIRcuts: 4    18565    1.41%
*     0+    0                      5174666.4108  5193375.6002             0.36%
      0     2  5193375.6002   222  5174666.4108  5193375.6002    18565    0.36%
Elapsed time = 13.08 sec. (10406.28 ticks, tree = 0.01 MB, solutions = 5)
*     3+    3                      5174845.8386  5193368.9022             0.36%
      3     5  5193117.5860   219  5174845.8386  5193368.9022    18578    0.36%
      5     7  5192859.5717   216  5174845.8386  5193368.9022    18584    0.36%
      6     8  5193362.6049   225  5174845.8386  5193367.6863    18589    0.36%
      7     9  5192845.3131   218  5174845.8386  5193367.6863    18595    0.36%
      8    10  5193110.1650   221  5174845.8386  5193367.6863    18604    0.36%
      9    11  5193110.8518   221  5174845.8386  5193367.6863    18611    0.36%
     10    12  5193074.9628   223  5174845.8386  5193367.6863    18618    0.36%
     11    13  5193040.8077   221  5174845.8386  5193367.6863    18620    0.36%
     12    14  5193110.1650   221  5174845.8386  5193367.6863    18622    0.36%
*    20+   20                      5174852.5181  5193366.9699             0.36%
*    21+   21                      5174868.7661  5193366.9699             0.36%
     37    39  5193004.2910   220  5174868.7661  5193366.9699    18704    0.36%
Elapsed time = 14.51 sec. (11377.29 ticks, tree = 0.01 MB, solutions = 9)
*    83+   83                      5174973.1121  5193366.9699             0.36%
    388   390  5193267.0101   220  5174973.1121  5193366.9699    19392    0.36%
    389   391  5192543.9980   216  5174973.1121  5193366.9699    19393    0.36%
    390   392  5192805.4028   218  5174973.1121  5193366.9699    19395    0.36%
    391   393  5193020.2021   219  5174973.1121  5193366.9699    19399    0.36%
    392   394  5192752.7270   217  5174973.1121  5193366.9699    19403    0.36%
    393   395  5192501.3539   216  5174973.1121  5193366.9699    19407    0.36%
    394   396  5192725.3269   217  5174973.1121  5193366.9699    19408    0.36%
    395   397  5192721.3894   217  5174973.1121  5193366.9699    19409    0.36%
    396   398  5192957.7007   219  5174973.1121  5193366.9699    19411    0.36%
*   397+  397                      5175068.6175  5193366.9699             0.35%
    397   399  5192709.3997   217  5175068.6175  5193366.9699    19413    0.35%
Elapsed time = 18.17 sec. (12490.31 ticks, tree = 0.01 MB, solutions = 12)
*   638+  638                      5175127.8339  5193366.9699             0.35%
    651   653  5192537.4664   217  5175127.8339  5193366.9699    20048    0.35%
    671   673  5192783.6287   218  5175127.8339  5193366.9699    20138    0.35%
    697   699  5192698.6112   218  5175127.8339  5193366.9699    20236    0.35%
    709   711  5192516.3416   216  5175127.8339  5193366.9699    20265    0.35%
    710   712  5193000.3077   220  5175127.8339  5193366.9699    20267    0.35%
    713   715  5192697.6705   217  5175127.8339  5193366.9699    20278    0.35%
    714   716  5192693.7330   217  5175127.8339  5193366.9699    20279    0.35%
    716   718  5192689.3922   217  5175127.8339  5193366.9699    20290    0.35%
    717   719  5192814.0991   218  5175127.8339  5193366.9699    20295    0.35%
    720   722  5192720.6084   217  5175127.8339  5193366.9699    20308    0.35%
Elapsed time = 20.09 sec. (13452.30 ticks, tree = 0.01 MB, solutions = 15)
    848   850  5192254.1903   215  5175127.8339  5193366.9699    20751    0.35%
*   856+  856                      5175348.1944  5193366.9699             0.35%
    856   858  5192680.0680   217  5175348.1944  5193366.9699    20783    0.35%
    857   859  5192552.9656   217  5175348.1944  5193366.9699    20790    0.35%
    868   870  5192506.0264   217  5175348.1944  5193366.9699    20835    0.35%
    870   872  5192730.5082   218  5175348.1944  5193366.9699    20843    0.35%
    874   876  5192683.4178   218  5175348.1944  5193366.9699    20853    0.35%
    876   878  5192428.2588   216  5175348.1944  5193366.9699    20861    0.35%
    877   879  5192801.9967   218  5175348.1944  5193366.9699    20862    0.35%
    880   882  5192708.5060   217  5175348.1944  5193366.9699    20865    0.35%
    888   890  5192504.0195   216  5175348.1944  5193366.9699    20892    0.35%
Elapsed time = 21.99 sec. (14491.86 ticks, tree = 3.79 MB, solutions = 18)
   1382  1384  5192756.8560   207  5175348.1944  5193366.9699    22174    0.35%
   1384  1386  5192693.3361   206  5175348.1944  5193366.9699    22184    0.35%
   1385  1387  5192663.3653   206  5175348.1944  5193366.9699    22185    0.35%
   1395  1397  5192936.5999   207  5175348.1944  5193366.9699    22203    0.35%
   1398  1400  5192641.6109   205  5175348.1944  5193366.9699    22206    0.35%
   1400  1402  5192859.4606   207  5175348.1944  5193366.9699    22216    0.35%
   1402  1404  5192756.1009   206  5175348.1944  5193366.9699    22218    0.35%
   1404  1406  5192686.4003   206  5175348.1944  5193366.9699    22220    0.35%
   1405  1407  5192662.6102   205  5175348.1944  5193366.9699    22221    0.35%
   1410  1412  5192751.4672   206  5175348.1944  5193366.9699    22238    0.35%
Elapsed time = 24.91 sec. (15452.68 ticks, tree = 8.66 MB, solutions = 22)
   1746  1748  5193068.7809   207  5175348.1944  5193366.9699    23123    0.35%
   1754  1756  5192553.2992   204  5175348.1944  5193366.9699    23136    0.35%
   1758  1760  5192650.0331   204  5175348.1944  5193366.9699    23140    0.35%
   1766  1768  5193067.6708   206  5175348.1944  5193366.9699    23154    0.35%
   1768  1770  5192416.9734   203  5175348.1944  5193366.9699    23160    0.35%
   1770  1772  5192564.0068   203  5175348.1944  5193366.9699    23162    0.35%
   1771  1773  5192114.7656   201  5175348.1944  5193366.9699    23167    0.35%
   1772  1774  5192591.4988   203  5175348.1944  5193366.9699    23168    0.35%
   1774  1776  5192816.1576   205  5175348.1944  5193366.9699    23170    0.35%
   1777  1779  5192148.3735   201  5175348.1944  5193366.9699    23183    0.35%
Elapsed time = 27.75 sec. (16498.52 ticks, tree = 24.26 MB, solutions = 22)
   2187  2189  5192051.8386   199  5175348.1944  5193366.9699    24287    0.35%
   2207  2209  5191935.9629   197  5175348.1944  5193366.9699    24355    0.35%
   2225  2227  5192056.4908   202  5175348.1944  5193366.9699    24420    0.35%
   2227  2229  5191935.4178   198  5175348.1944  5193366.9699    24426    0.35%
   2229  2231  5191970.2175   201  5175348.1944  5193366.9699    24433    0.35%
   2230  2232  5191920.7937   201  5175348.1944  5193366.9699    24438    0.35%
   2239  2241  5192135.6188   198  5175348.1944  5193366.9699    24464    0.35%
   2241  2243  5192235.9027   203  5175348.1944  5193366.9699    24472    0.35%
   2244  2246  5191582.1564   199  5175348.1944  5193366.9699    24483    0.35%
   2245  2247  5192053.9238   202  5175348.1944  5193366.9699    24485    0.35%
Elapsed time = 30.74 sec. (17485.39 ticks, tree = 38.14 MB, solutions = 22)
   2306  2308  5192006.3796   200  5175348.1944  5193366.9699    24701    0.35%
   2382  2384  5191554.3496   200  5175348.1944  5193366.9699    24932    0.35%
   2427  2429  5191176.6392   196  5175348.1944  5193366.9699    25063    0.35%
   2441  2443  5191882.3406   198  5175348.1944  5193366.9699    25105    0.35%
   2528  2530  5192123.0913   199  5175348.1944  5193366.9699    25362    0.35%
   2544  2546  5192015.4090   200  5175348.1944  5193366.9699    25416    0.35%
   2560  2562  5191899.5333   198  5175348.1944  5193366.9699    25463    0.35%
   2561  2563  5191533.9703   198  5175348.1944  5193366.9699    25467    0.35%
   2563  2565  5191723.0263   197  5175348.1944  5193366.9699    25471    0.35%
   2576  2578  5191898.9882   199  5175348.1944  5193366.9699    25512    0.35%
Elapsed time = 33.60 sec. (18547.30 ticks, tree = 38.14 MB, solutions = 22)
   2944  2946  5191151.9124   197  5175348.1944  5193366.9699    26638    0.35%
   2955  2957  5191386.0836   197  5175348.1944  5193366.9699    26679    0.35%
   2959  2961  5190900.7588   194  5175348.1944  5193366.9699    26692    0.35%
   2964  2966  5190952.2509   196  5175348.1944  5193366.9699    26708    0.35%
   2967  2969  5190905.8123   197  5175348.1944  5193366.9699    26714    0.35%
   2970  2972  5191857.6932   201  5175348.1944  5193366.9699    26722    0.35%
   2971  2973  5190732.7598   193  5175348.1944  5193366.9699    26725    0.35%
   2973  2975  5190276.5961   195  5175348.1944  5193366.9699    26733    0.35%
   2974  2976  5190202.6714   195  5175348.1944  5193366.9699    26734    0.35%
   2975  2977  5191574.8170   198  5175348.1944  5193366.9699    26738    0.35%
Elapsed time = 35.98 sec. (19955.53 ticks, tree = 58.46 MB, solutions = 22)
   3449  3451  5190903.5713   199  5175348.1944  5193366.9699    27876    0.35%
   3450  3452  5191629.8607   201  5175348.1944  5193366.9699    27879    0.35%
   3459  3461  5190401.4316   192  5175348.1944  5193366.9699    27902    0.35%
   3469  3471  5190902.7190   199  5175348.1944  5193366.9699    27921    0.35%
   3470  3472  5191629.0084   201  5175348.1944  5193366.9699    27925    0.35%
   3475  3477  5191009.1198   196  5175348.1944  5193366.9699    27938    0.35%
   3479  3481  5190336.9592   192  5175348.1944  5193366.9699    27942    0.35%
   3484  3486  5190521.8091   195  5175348.1944  5193366.9699    27963    0.35%
   3489  3491  5190901.1154   199  5175348.1944  5193366.9699    27973    0.35%
   4873  4875  5188063.4712   182  5175348.1944  5193366.9699    31876    0.35%
Elapsed time = 47.36 sec. (23788.88 ticks, tree = 118.34 MB, solutions = 22)
*  6413+ 6413                      5175911.6397  5193366.9699             0.34%
*  6413+ 6413                      5176190.2571  5193366.9699             0.33%
   6413  6415  5185744.2155   143  5176190.2571  5193366.9699    35866    0.33%
*  6414+ 6414                      5176217.3119  5193366.9699             0.33%
   6414  6416  5184493.2437   131  5176217.3119  5193366.9699    35869    0.33%
   6415  6417  5186882.5166   146  5176217.3119  5193366.9699    35873    0.33%
   6416  6418  5187362.5106   147  5176217.3119  5193366.9699    35877    0.33%
   6417  6419  5185654.5487   140  5176217.3119  5193366.9699    35879    0.33%
   6418  6420  5184736.6736   136  5176217.3119  5193366.9699    35882    0.33%
*  6419+ 6419                      5176386.2406  5193366.9699             0.33%
*  6419+ 6419                      5176538.9432  5193366.9699             0.33%
*  6419+ 6419                      5176549.7803  5193366.9699             0.32%
   6419  6421  5184972.8848   135  5176549.7803  5193366.9699    35887    0.32%
*  6420+ 6420                      5176572.1801  5193366.9699             0.32%
   6420  6422  5185276.4779   141  5176572.1801  5193366.9699    35890    0.32%
   6421  6423  5187602.6895   151  5176572.1801  5193366.9699    35891    0.32%
   6422  6424  5184861.7575   137  5176572.1801  5193366.9699    35892    0.32%
Elapsed time = 92.00 sec. (44743.38 ticks, tree = 298.91 MB, solutions = 22)
*  6433+ 4289                      5176591.6030  5178746.5898             0.04%
*  6433+ 2858                      5176640.6239  5178566.8794             0.04%
*  6433+ 1905                      5178167.3604  5178566.8794             0.01%

Implied bound cuts applied:  182
Flow cuts applied:  78
Mixed integer rounding cuts applied:  5207
Lift and project cuts applied:  56
Gomory fractional cuts applied:  261

Root node processing (before b&c):
  Real time             =   12.49 sec. (10392.96 ticks)
Parallel b&c, 20 threads:
  Real time             =  105.91 sec. (67163.51 ticks)
  Sync time (average)   =   16.25 sec.
  Wait time (average)   =   17.30 sec.
                          ------------
Total (root+branch&cut) =  118.41 sec. (77556.47 ticks)
MKLROOT=/global/software/sl-6.x86_64/modules/langs/intel/2015.6.233/mkl
SLURM_NODELIST=n0123.savio1
SLURM_CHECKPOINT_IMAGE_DIR=/var/slurm/checkpoint
MANPATH=/global/software/sl-6.x86_64/modules/langs/julia/0.5.0/share/man:/global/software/sl-6.x86_64/modules/langs/intel/2015.6.233/man/en_US:/global/software/sl-6.x86_64/modules/langs/gcc/4.8.5/share/man:/usr/share/man
SLURM_JOB_NAME=aggregator
HOSTNAME=n0123.savio1
SLURM_NTASKS_PER_NODE=1
SLURM_TOPOLOGY_ADDR=ib-savio.ib-savio-05.n0123.savio1
SLURMD_NODENAME=n0123.savio1
SLURM_PRIO_PROCESS=0
SLURM_NODE_ALIASES=(null)
TERM=xterm-256color
SHELL=/bin/bash
HISTSIZE=1000
SLURM_JOB_QOS=savio_normal
SSH_CLIENT=128.32.156.166 53087 22
SLURM_TOPOLOGY_ADDR_PATTERN=switch.switch.node
TMPDIR=/tmp
LIBRARY_PATH=/global/software/sl-6.x86_64/modules/langs/julia/0.5.0/lib/julia:/global/software/sl-6.x86_64/modules/langs/intel/2015.6.233/mkl/lib/intel64:/global/software/sl-6.x86_64/modules/langs/gcc/4.8.5/lib64:/global/software/sl-6.x86_64/modules/langs/gcc/4.8.5/lib
GCC_DIR=/global/software/sl-6.x86_64/modules/langs/gcc/4.8.5
FPATH=/global/software/sl-6.x86_64/modules/langs/intel/2015.6.233/mkl/include/fftw:/global/software/sl-6.x86_64/modules/langs/intel/2015.6.233/mkl/include
SSH_TTY=/dev/pts/23
USER=jdlara
SLURM_NNODES=1
LD_LIBRARY_PATH=/global/software/sl-6.x86_64/modules/langs/julia/0.5.0/lib/julia:/global/software/sl-6.x86_64/modules/langs/intel/2015.6.233/mkl/lib/intel64:/global/software/sl-6.x86_64/modules/langs/gcc/4.8.5/lib64:/global/software/sl-6.x86_64/modules/langs/gcc/4.8.5/lib:/global/home/users/jdlara/gurobi652/linux64/lib
LS_COLORS=rs=0:di=38;5;27:ln=38;5;51:mh=44;38;5;15:pi=40;38;5;11:so=38;5;13:do=38;5;5:bd=48;5;232;38;5;11:cd=48;5;232;38;5;3:or=48;5;232;38;5;9:mi=05;48;5;232;38;5;15:su=48;5;196;38;5;15:sg=48;5;11;38;5;16:ca=48;5;196;38;5;226:tw=48;5;10;38;5;16:ow=48;5;10;38;5;21:st=48;5;21;38;5;15:ex=38;5;34:*.tar=38;5;9:*.tgz=38;5;9:*.arj=38;5;9:*.taz=38;5;9:*.lzh=38;5;9:*.lzma=38;5;9:*.tlz=38;5;9:*.txz=38;5;9:*.zip=38;5;9:*.z=38;5;9:*.Z=38;5;9:*.dz=38;5;9:*.gz=38;5;9:*.lz=38;5;9:*.xz=38;5;9:*.bz2=38;5;9:*.tbz=38;5;9:*.tbz2=38;5;9:*.bz=38;5;9:*.tz=38;5;9:*.deb=38;5;9:*.rpm=38;5;9:*.jar=38;5;9:*.rar=38;5;9:*.ace=38;5;9:*.zoo=38;5;9:*.cpio=38;5;9:*.7z=38;5;9:*.rz=38;5;9:*.jpg=38;5;13:*.jpeg=38;5;13:*.gif=38;5;13:*.bmp=38;5;13:*.pbm=38;5;13:*.pgm=38;5;13:*.ppm=38;5;13:*.tga=38;5;13:*.xbm=38;5;13:*.xpm=38;5;13:*.tif=38;5;13:*.tiff=38;5;13:*.png=38;5;13:*.svg=38;5;13:*.svgz=38;5;13:*.mng=38;5;13:*.pcx=38;5;13:*.mov=38;5;13:*.mpg=38;5;13:*.mpeg=38;5;13:*.m2v=38;5;13:*.mkv=38;5;13:*.ogm=38;5;13:*.mp4=38;5;13:*.m4v=38;5;13:*.mp4v=38;5;13:*.vob=38;5;13:*.qt=38;5;13:*.nuv=38;5;13:*.wmv=38;5;13:*.asf=38;5;13:*.rm=38;5;13:*.rmvb=38;5;13:*.flc=38;5;13:*.avi=38;5;13:*.fli=38;5;13:*.flv=38;5;13:*.gl=38;5;13:*.dl=38;5;13:*.xcf=38;5;13:*.xwd=38;5;13:*.yuv=38;5;13:*.cgm=38;5;13:*.emf=38;5;13:*.axv=38;5;13:*.anx=38;5;13:*.ogv=38;5;13:*.ogx=38;5;13:*.aac=38;5;45:*.au=38;5;45:*.flac=38;5;45:*.mid=38;5;45:*.midi=38;5;45:*.mka=38;5;45:*.mp3=38;5;45:*.mpc=38;5;45:*.ogg=38;5;45:*.ra=38;5;45:*.wav=38;5;45:*.axa=38;5;45:*.oga=38;5;45:*.spx=38;5;45:*.xspf=38;5;45:
CPATH=/global/software/sl-6.x86_64/modules/langs/julia/0.5.0/include:/global/software/sl-6.x86_64/modules/langs/intel/2015.6.233/mkl/include/fftw:/global/software/sl-6.x86_64/modules/langs/intel/2015.6.233/mkl/include:/global/software/sl-6.x86_64/modules/langs/gcc/4.8.5/include
SLURM_JOBID=1277268
SLURM_NTASKS=1
NLSPATH=/global/software/sl-6.x86_64/modules/langs/intel/2015.6.233/mkl/lib/intel64/locale/en_US
MAIL=/var/spool/mail/jdlara
PATH=/global/software/sl-6.x86_64/modules/langs/julia/0.5.0/bin:/global/software/sl-6.x86_64/modules/langs/gcc/4.8.5/bin:/usr/local/bin:/bin:/usr/bin:/usr/local/sbin:/usr/sbin:/sbin:/global/home/groups/allhands/bin:/global/home/users/jdlara/gurobi652/linux64/bin:/global/home/users/jdlara/bin:/global/home/users/jdlara/gurobi652/linux64/bin
SLURM_TASKS_PER_NODE=20
SLURM_CPUS_PER_TASK=1
SLURM_JOB_ID=1277268
PWD=/global/home/users/jdlara/Julia_testcodes/aggregator_model/Multiple_fleet
SLURM_JOB_USER=jdlara
_LMFILES_=/global/software/sl-6.x86_64/modfiles/langs/gcc/4.8.5:/global/software/sl-6.x86_64/modfiles/gcc/4.8.5/mkl/2015.6.233:/global/software/sl-6.x86_64/modfiles/langs/julia/0.5.0
CUDA_VISIBLE_DEVICES=NoDevFiles
MODULEPATH=/global/software/sl-6.x86_64/modfiles/tools:/global/software/sl-6.x86_64/modfiles/langs:/global/software/sl-6.x86_64/modfiles/julia/0.5.0:/global/software/sl-6.x86_64/modfiles/gcc/4.8.5
LOADEDMODULES=gcc/4.8.5:mkl/2015.6.233:julia/0.5.0
SLURM_JOB_UID=42745
SLURM_NODEID=0
SLURM_SUBMIT_DIR=/global/home/users/jdlara/Julia_testcodes/aggregator_model/Multiple_fleet
SLURM_NPROCS=1
SLURM_TASK_PID=82055
LM_LICENSE_FILE=28518@lmgr0.hpcs.lbl.gov
SLURM_CPUS_ON_NODE=20
JULIA_DIR=/global/software/sl-6.x86_64/modules/langs/julia/0.5.0
ALLHANDS_BASHRC=1
HISTCONTROL=ignoredups
ENVIRONMENT=BATCH
SLURM_PROCID=0
MKL_DIR=/global/software/sl-6.x86_64/modules/langs/intel/2015.6.233/mkl
SLURM_JOB_NODELIST=n0123.savio1
SHLVL=3
HOME=/global/home/users/jdlara
SLURM_LOCALID=0
SLURM_CLUSTER_NAME=brc
SLURM_JOB_CPUS_PER_NODE=20
SLURM_SUBMIT_HOST=n0120.savio1
SLURM_GTIDS=0
SLURM_JOB_PARTITION=savio
LOGNAME=jdlara
CVS_RSH=ssh
SSH_CONNECTION=128.32.156.166 53087 10.0.0.22 22
SLURM_JOB_ACCOUNT=fc_emac
GPU_DEVICE_ORDINAL=NoDevFiles
MODULESHOME=/usr/Modules
SLURM_JOB_NUM_NODES=1
LESSOPEN=||/usr/bin/lesspipe.sh %s
INFOPATH=/global/software/sl-6.x86_64/modules/langs/gcc/4.8.5/share/info
INCLUDE=/global/software/sl-6.x86_64/modules/langs/julia/0.5.0/include:/global/software/sl-6.x86_64/modules/langs/intel/2015.6.233/mkl/include/fftw:/global/software/sl-6.x86_64/modules/langs/intel/2015.6.233/mkl/include:/global/software/sl-6.x86_64/modules/langs/gcc/4.8.5/include
G_BROKEN_FILENAMES=1
SLURM_MEM_PER_NODE=64000
BASH_FUNC_module()=() {  logger "$HOSTNAME $USER: module $*";
 eval `/usr/Modules/bin/modulecmd bash $*`
}
_=/bin/env
